\ Model ajuste
\ LP format - for model browsing. Use MPS format to capture full model detail.
Minimize
  - 1.3560108214581907e+07 coef_ajuste + 6.7696426537042251e+06 Constant + [
   1.3580963146596648e+07 coef_ajuste ^2 ] / 2 
Subject To
Bounds
 coef_ajuste <= 1
 Constant = 1
End
